in/P-n16-k8.opt
8
0 2 0
0 6 0
0 8 0
0 15 12 10 0
0 14 5 0
0 13 9 7 0
0 11 4 0
0 3 1 0
